\* MostekRezystorow *\
Minimize
Calkowita_moc: 36 R1 + 100 R2 + 16 R3 + 49 R4 + 9 R5
Subject To
_C1: 6 R1 <= 0.005
_C10: 3 R5 >= 0.003
_C2: 6 R1 >= 0.003
_C3: 10 R2 <= 0.003
_C4: 10 R2 >= 0.001
_C5: 4 R3 <= 0.003
_C6: 4 R3 >= 0.001
_C7: 7 R4 <= 0.003
_C8: 7 R4 >= 0.001
_C9: 3 R5 <= 0.005
Bounds
0.0001 <= R1
0.0001 <= R2
0.0001 <= R3
0.0001 <= R4
0.0001 <= R5
End
